
Gurobi 7.5.2 (linux64) logging started Thu Mar 21 01:08:11 2019

Changed value of parameter LogFile to /home/aniket/python_scripts/Plasmids/exp/2019-03-21__iterative_with_questionable/output/sample_125/1.5.1/nplasmids_1/MILP/m.log
   Prev: gurobi.log  Default: 
Changed value of parameter TimeLimit to 2400.0
   Prev: 1e+100  Min: 0.0  Max: 1e+100  Default: 1e+100
Optimize a model with 3225 rows, 938 columns and 13046 nonzeros
Variable types: 247 continuous, 691 integer (363 binary)
Coefficient statistics:
  Matrix range     [2e-01, 1e+06]
  Objective range  [4e-04, 1e+06]
  Bounds range     [1e+00, 1e+00]
  RHS range        [5e-01, 1e+06]
Presolve removed 2590 rows and 579 columns
Presolve time: 0.01s
Presolved: 635 rows, 359 columns, 2094 nonzeros
Variable types: 74 continuous, 285 integer (212 binary)
Found heuristic solution: objective -444413.5574

Root relaxation: objective -1.188226e+06, 510 iterations, 0.01 seconds

    Nodes    |    Current Node    |     Objective Bounds      |     Work
 Expl Unexpl |  Obj  Depth IntInf | Incumbent    BestBd   Gap | It/Node Time

     0     0 -1188225.8    0   46 -444413.56 -1188225.8   167%     -    0s
     0     0 -1123875.8    0   27 -444413.56 -1123875.8   153%     -    0s
     0     0 -1120403.6    0   32 -444413.56 -1120403.6   152%     -    0s
     0     0 -1120152.4    0   23 -444413.56 -1120152.4   152%     -    0s
     0     0 -1120128.2    0    2 -444413.56 -1120128.2   152%     -    0s
     0     0 -1120114.2    0    5 -444413.56 -1120114.2   152%     -    0s
H    0     0                    -456236.3318 -1120114.2   146%     -    0s
*    0     0               0    -1120111.709 -1120111.7  0.00%     -    0s

Cutting planes:
  Gomory: 7
  Cover: 45
  Implied bound: 6
  Clique: 11
  MIR: 3
  Flow cover: 24
  Zero half: 4

Explored 1 nodes (679 simplex iterations) in 0.06 seconds
Thread count was 4 (of 4 available processors)

Solution count 3: -1.12011e+06 -456236 -444414 

Optimal solution found (tolerance 1.00e-04)
Best objective -1.120111708958e+06, best bound -1.120111708958e+06, gap 0.0000%

Gurobi 7.5.2 (linux64) logging started Thu Mar 21 01:08:11 2019

Changed value of parameter LogFile to /home/aniket/python_scripts/Plasmids/exp/2019-03-21__iterative_with_questionable/output/sample_125/1.5.1/nplasmids_1/MILP/m.log
   Prev: gurobi.log  Default: 
Changed value of parameter TimeLimit to 2400.0
   Prev: 1e+100  Min: 0.0  Max: 1e+100  Default: 1e+100
Optimize a model with 2809 rows, 816 columns and 10624 nonzeros
Variable types: 217 continuous, 599 integer (311 binary)
Coefficient statistics:
  Matrix range     [2e-01, 1e+06]
  Objective range  [6e-04, 2e+05]
  Bounds range     [1e+00, 1e+00]
  RHS range        [2e-01, 1e+06]
Presolve removed 2193 rows and 469 columns
Presolve time: 0.02s
Presolved: 616 rows, 347 columns, 2021 nonzeros
Variable types: 73 continuous, 274 integer (202 binary)
Found heuristic solution: objective -124639.0909

Root relaxation: objective -2.553669e+05, 441 iterations, 0.01 seconds

    Nodes    |    Current Node    |     Objective Bounds      |     Work
 Expl Unexpl |  Obj  Depth IntInf | Incumbent    BestBd   Gap | It/Node Time

     0     0 -255366.95    0   75 -124639.09 -255366.95   105%     -    0s
H    0     0                    -198911.8116 -255366.95  28.4%     -    0s
H    0     0                    -198915.1174 -255366.95  28.4%     -    0s
*    0     0               0    -200709.9824 -200709.98  0.00%     -    0s

Cutting planes:
  Cover: 2
  Clique: 2
  MIR: 1
  Flow cover: 3

Explored 1 nodes (501 simplex iterations) in 0.04 seconds
Thread count was 4 (of 4 available processors)

Solution count 4: -200710 -198915 -198912 -124639 

Optimal solution found (tolerance 1.00e-04)
Best objective -2.007099823967e+05, best bound -2.007099823967e+05, gap 0.0000%

Gurobi 7.5.2 (linux64) logging started Thu Mar 21 01:08:11 2019

Changed value of parameter LogFile to /home/aniket/python_scripts/Plasmids/exp/2019-03-21__iterative_with_questionable/output/sample_125/1.5.1/nplasmids_1/MILP/m.log
   Prev: gurobi.log  Default: 
Changed value of parameter TimeLimit to 2400.0
   Prev: 1e+100  Min: 0.0  Max: 1e+100  Default: 1e+100
Optimize a model with 2771 rows, 805 columns and 10409 nonzeros
Variable types: 214 continuous, 591 integer (307 binary)
Coefficient statistics:
  Matrix range     [2e-01, 1e+06]
  Objective range  [6e-04, 2e+05]
  Bounds range     [1e+00, 1e+00]
  RHS range        [2e-01, 1e+06]
Presolve removed 2160 rows and 461 columns
Presolve time: 0.01s
Presolved: 611 rows, 344 columns, 2004 nonzeros
Variable types: 72 continuous, 272 integer (201 binary)
Found heuristic solution: objective -106327.6553

Root relaxation: objective -1.100676e+05, 341 iterations, 0.00 seconds

    Nodes    |    Current Node    |     Objective Bounds      |     Work
 Expl Unexpl |  Obj  Depth IntInf | Incumbent    BestBd   Gap | It/Node Time

     0     0 -110067.63    0   25 -106327.66 -110067.63  3.52%     -    0s
     0     0 -108587.99    0   30 -106327.66 -108587.99  2.13%     -    0s
     0     0 -108584.15    0   29 -106327.66 -108584.15  2.12%     -    0s
     0     0 -108584.15    0   29 -106327.66 -108584.15  2.12%     -    0s
     0     0 -108552.65    0   16 -106327.66 -108552.65  2.09%     -    0s
     0     0 -108551.77    0   16 -106327.66 -108551.77  2.09%     -    0s
     0     0 -108551.77    0   16 -106327.66 -108551.77  2.09%     -    0s
     0     0 -108530.72    0   12 -106327.66 -108530.72  2.07%     -    0s
     0     0 -108530.31    0   35 -106327.66 -108530.31  2.07%     -    0s
     0     0 -108514.10    0    2 -106327.66 -108514.10  2.06%     -    0s
     0     0 -108513.30    0   11 -106327.66 -108513.30  2.06%     -    0s
     0     0 -108513.30    0   11 -106327.66 -108513.30  2.06%     -    0s
*    0     0               0    -108513.2958 -108513.30  0.00%     -    0s

Cutting planes:
  Gomory: 6
  Cover: 41
  Implied bound: 20
  Clique: 9
  MIR: 3
  Flow cover: 20
  Zero half: 2

Explored 1 nodes (534 simplex iterations) in 0.05 seconds
Thread count was 4 (of 4 available processors)

Solution count 2: -108513 -106328 

Optimal solution found (tolerance 1.00e-04)
Best objective -1.085132958456e+05, best bound -1.085132958456e+05, gap 0.0000%

Gurobi 7.5.2 (linux64) logging started Thu Mar 21 01:08:11 2019

Changed value of parameter LogFile to /home/aniket/python_scripts/Plasmids/exp/2019-03-21__iterative_with_questionable/output/sample_125/1.5.1/nplasmids_1/MILP/m.log
   Prev: gurobi.log  Default: 
Changed value of parameter TimeLimit to 2400.0
   Prev: 1e+100  Min: 0.0  Max: 1e+100  Default: 1e+100
Optimize a model with 2733 rows, 794 columns and 10196 nonzeros
Variable types: 211 continuous, 583 integer (303 binary)
Coefficient statistics:
  Matrix range     [2e-01, 1e+06]
  Objective range  [6e-04, 2e+05]
  Bounds range     [1e+00, 1e+00]
  RHS range        [2e-01, 1e+06]
Presolve removed 2127 rows and 453 columns
Presolve time: 0.01s
Presolved: 606 rows, 341 columns, 1988 nonzeros
Variable types: 71 continuous, 270 integer (200 binary)
Found heuristic solution: objective -19908.31964

Root relaxation: objective -4.852393e+04, 237 iterations, 0.00 seconds

    Nodes    |    Current Node    |     Objective Bounds      |     Work
 Expl Unexpl |  Obj  Depth IntInf | Incumbent    BestBd   Gap | It/Node Time

     0     0 -48523.929    0   98 -19908.320 -48523.929   144%     -    0s
H    0     0                    -34347.92300 -48523.929  41.3%     -    0s
     0     0     cutoff    0      -34347.923 -34347.923  0.00%     -    0s

Cutting planes:
  Gomory: 1
  Clique: 1

Explored 1 nodes (283 simplex iterations) in 0.03 seconds
Thread count was 4 (of 4 available processors)

Solution count 2: -34347.9 -19908.3 

Optimal solution found (tolerance 1.00e-04)
Best objective -3.434792299705e+04, best bound -3.434792299705e+04, gap 0.0000%

Gurobi 7.5.2 (linux64) logging started Thu Mar 21 01:08:11 2019

Changed value of parameter LogFile to /home/aniket/python_scripts/Plasmids/exp/2019-03-21__iterative_with_questionable/output/sample_125/1.5.1/nplasmids_1/MILP/m.log
   Prev: gurobi.log  Default: 
Changed value of parameter TimeLimit to 2400.0
   Prev: 1e+100  Min: 0.0  Max: 1e+100  Default: 1e+100
Optimize a model with 2689 rows, 781 columns and 9958 nonzeros
Variable types: 208 continuous, 573 integer (297 binary)
Coefficient statistics:
  Matrix range     [2e-01, 1e+06]
  Objective range  [6e-04, 2e+05]
  Bounds range     [1e+00, 1e+00]
  RHS range        [2e-01, 1e+06]
Presolve removed 2099 rows and 450 columns
Presolve time: 0.02s
Presolved: 590 rows, 331 columns, 1930 nonzeros
Variable types: 70 continuous, 261 integer (192 binary)
Found heuristic solution: objective -1212.104011

Root relaxation: objective -4.874229e+04, 282 iterations, 0.00 seconds

    Nodes    |    Current Node    |     Objective Bounds      |     Work
 Expl Unexpl |  Obj  Depth IntInf | Incumbent    BestBd   Gap | It/Node Time

     0     0 -48742.291    0  134 -1212.1040 -48742.291  3921%     -    0s
H    0     0                    -3919.169016 -48742.291  1144%     -    0s
     0     0 -47851.702    0  147 -3919.1690 -47851.702  1121%     -    0s
H    0     0                    -24613.67040 -47851.702  94.4%     -    0s
     0     0 -47276.553    0   69 -24613.670 -47276.553  92.1%     -    0s
     0     0 -47218.108    0   63 -24613.670 -47218.108  91.8%     -    0s
     0     0 -47189.622    0   65 -24613.670 -47189.622  91.7%     -    0s
     0     0 -47008.296    0   62 -24613.670 -47008.296  91.0%     -    0s
     0     0 -47008.296    0   20 -24613.670 -47008.296  91.0%     -    0s
H    0     0                    -26277.67244 -47008.296  78.9%     -    0s
     0     0 -44723.446    0   20 -26277.672 -44723.446  70.2%     -    0s
     0     0 -44600.051    0   20 -26277.672 -44600.051  69.7%     -    0s
     0     0 -44588.024    0   22 -26277.672 -44588.024  69.7%     -    0s
     0     0 -44570.509    0   21 -26277.672 -44570.509  69.6%     -    0s
     0     0 -44093.767    0   24 -26277.672 -44093.767  67.8%     -    0s
     0     0 -44093.536    0   24 -26277.672 -44093.536  67.8%     -    0s
     0     0 -44013.799    0   23 -26277.672 -44013.799  67.5%     -    0s
     0     0 -43960.999    0   22 -26277.672 -43960.999  67.3%     -    0s
     0     0 -43893.805    0   22 -26277.672 -43893.805  67.0%     -    0s
     0     0 -43892.682    0   23 -26277.672 -43892.682  67.0%     -    0s
     0     0 -43884.494    0   23 -26277.672 -43884.494  67.0%     -    0s
     0     0 -43617.638    0   20 -26277.672 -43617.638  66.0%     -    0s
     0     0 -43617.638    0   15 -26277.672 -43617.638  66.0%     -    0s
     0     0 -43408.109    0   16 -26277.672 -43408.109  65.2%     -    0s
     0     0 -42772.454    0   14 -26277.672 -42772.454  62.8%     -    0s
     0     0 -42728.044    0   13 -26277.672 -42728.044  62.6%     -    0s
     0     0 -42699.014    0   13 -26277.672 -42699.014  62.5%     -    0s
     0     0 -39619.330    0   16 -26277.672 -39619.330  50.8%     -    0s
     0     0 -39617.664    0   17 -26277.672 -39617.664  50.8%     -    0s
     0     0 -39580.948    0   19 -26277.672 -39580.948  50.6%     -    0s
     0     0     cutoff    0      -26277.672 -26277.672  0.00%     -    0s

Cutting planes:
  Gomory: 6
  Implied bound: 3
  MIR: 3

Explored 1 nodes (833 simplex iterations) in 0.12 seconds
Thread count was 4 (of 4 available processors)

Solution count 4: -26277.7 -24613.7 -3919.17 -1212.1 

Optimal solution found (tolerance 1.00e-04)
Best objective -2.627767243830e+04, best bound -2.627767243830e+04, gap 0.0000%

Gurobi 7.5.2 (linux64) logging started Thu Mar 21 01:08:11 2019

Changed value of parameter LogFile to /home/aniket/python_scripts/Plasmids/exp/2019-03-21__iterative_with_questionable/output/sample_125/1.5.1/nplasmids_1/MILP/m.log
   Prev: gurobi.log  Default: 
Changed value of parameter TimeLimit to 2400.0
   Prev: 1e+100  Min: 0.0  Max: 1e+100  Default: 1e+100
Optimize a model with 2648 rows, 769 columns and 9736 nonzeros
Variable types: 205 continuous, 564 integer (292 binary)
Coefficient statistics:
  Matrix range     [2e-01, 1e+06]
  Objective range  [6e-04, 2e+05]
  Bounds range     [1e+00, 1e+00]
  RHS range        [2e-01, 1e+06]
Presolve removed 2074 rows and 446 columns
Presolve time: 0.01s
Presolved: 574 rows, 323 columns, 1883 nonzeros
Variable types: 68 continuous, 255 integer (188 binary)
Found heuristic solution: objective -1212.104011

Root relaxation: objective -3.438328e+04, 343 iterations, 0.01 seconds

    Nodes    |    Current Node    |     Objective Bounds      |     Work
 Expl Unexpl |  Obj  Depth IntInf | Incumbent    BestBd   Gap | It/Node Time

     0     0 -34383.280    0   77 -1212.1040 -34383.280  2737%     -    0s
H    0     0                    -19878.57939 -34383.280  73.0%     -    0s
     0     0 -32973.362    0    8 -19878.579 -32973.362  65.9%     -    0s
*    0     0               0    -24613.67040 -24613.670  0.00%     -    0s

Explored 1 nodes (424 simplex iterations) in 0.04 seconds
Thread count was 4 (of 4 available processors)

Solution count 3: -24613.7 -19878.6 -1212.1 

Optimal solution found (tolerance 1.00e-04)
Best objective -2.461367039708e+04, best bound -2.461367039708e+04, gap 0.0000%

Gurobi 7.5.2 (linux64) logging started Thu Mar 21 01:08:11 2019

Changed value of parameter LogFile to /home/aniket/python_scripts/Plasmids/exp/2019-03-21__iterative_with_questionable/output/sample_125/1.5.1/nplasmids_1/MILP/m.log
   Prev: gurobi.log  Default: 
Changed value of parameter TimeLimit to 2400.0
   Prev: 1e+100  Min: 0.0  Max: 1e+100  Default: 1e+100
Optimize a model with 2607 rows, 757 columns and 9516 nonzeros
Variable types: 202 continuous, 555 integer (287 binary)
Coefficient statistics:
  Matrix range     [2e-01, 1e+06]
  Objective range  [6e-04, 2e+05]
  Bounds range     [1e+00, 1e+00]
  RHS range        [2e-01, 1e+06]
Presolve removed 2043 rows and 441 columns
Presolve time: 0.02s
Presolved: 564 rows, 316 columns, 1851 nonzeros
Variable types: 67 continuous, 249 integer (183 binary)
Found heuristic solution: objective -1212.104011

Root relaxation: objective -1.173782e+04, 380 iterations, 0.00 seconds

    Nodes    |    Current Node    |     Objective Bounds      |     Work
 Expl Unexpl |  Obj  Depth IntInf | Incumbent    BestBd   Gap | It/Node Time

     0     0 -11737.825    0   40 -1212.1040 -11737.825   868%     -    0s
     0     0 -8366.2642    0   22 -1212.1040 -8366.2642   590%     -    0s
     0     0 -8362.8707    0   21 -1212.1040 -8362.8707   590%     -    0s
     0     0 -8343.8868    0    2 -1212.1040 -8343.8868   588%     -    0s
     0     0 -8339.5760    0   13 -1212.1040 -8339.5760   588%     -    0s
     0     0 -8334.3863    0   24 -1212.1040 -8334.3863   588%     -    0s
     0     0 -8332.9272    0   13 -1212.1040 -8332.9272   587%     -    0s
     0     0 -8332.9272    0   13 -1212.1040 -8332.9272   587%     -    0s
H    0     0                    -8320.482663 -8332.9272  0.15%     -    0s
H    0     0                    -8323.994553 -8332.9272  0.11%     -    0s
     0     0     cutoff    0      -8323.9946 -8323.9946  0.00%     -    0s

Explored 1 nodes (573 simplex iterations) in 0.06 seconds
Thread count was 4 (of 4 available processors)

Solution count 3: -8323.99 -8320.48 -1212.1 

Optimal solution found (tolerance 1.00e-04)
Best objective -8.323994552838e+03, best bound -8.323994552838e+03, gap 0.0000%

Gurobi 7.5.2 (linux64) logging started Thu Mar 21 01:08:11 2019

Changed value of parameter LogFile to /home/aniket/python_scripts/Plasmids/exp/2019-03-21__iterative_with_questionable/output/sample_125/1.5.1/nplasmids_1/MILP/m.log
   Prev: gurobi.log  Default: 
Changed value of parameter TimeLimit to 2400.0
   Prev: 1e+100  Min: 0.0  Max: 1e+100  Default: 1e+100
Optimize a model with 2569 rows, 746 columns and 9311 nonzeros
Variable types: 199 continuous, 547 integer (283 binary)
Coefficient statistics:
  Matrix range     [2e-01, 1e+06]
  Objective range  [6e-04, 2e+05]
  Bounds range     [1e+00, 1e+00]
  RHS range        [2e-01, 1e+06]
Presolve removed 2056 rows and 433 columns
Presolve time: 0.01s
Presolved: 513 rows, 313 columns, 1660 nonzeros
Variable types: 66 continuous, 247 integer (247 binary)
Found heuristic solution: objective -1212.104011

Root relaxation: objective -3.105593e+03, 361 iterations, 0.00 seconds

    Nodes    |    Current Node    |     Objective Bounds      |     Work
 Expl Unexpl |  Obj  Depth IntInf | Incumbent    BestBd   Gap | It/Node Time

     0     0 -3105.5930    0   35 -1212.1040 -3105.5930   156%     -    0s
     0     0 -2105.9190    0   30 -1212.1040 -2105.9190  73.7%     -    0s
     0     0 -2098.6957    0   39 -1212.1040 -2098.6957  73.1%     -    0s
     0     0 -2088.7675    0   47 -1212.1040 -2088.7675  72.3%     -    0s
     0     0 -2059.5242    0   40 -1212.1040 -2059.5242  69.9%     -    0s
     0     0 -2046.2083    0   33 -1212.1040 -2046.2083  68.8%     -    0s
     0     0 -2046.1982    0   33 -1212.1040 -2046.1982  68.8%     -    0s
     0     0 -1891.9626    0   62 -1212.1040 -1891.9626  56.1%     -    0s
     0     0 -1865.1809    0   62 -1212.1040 -1865.1809  53.9%     -    0s
     0     0 -1862.7982    0   49 -1212.1040 -1862.7982  53.7%     -    0s
     0     0 -1862.7475    0   58 -1212.1040 -1862.7475  53.7%     -    0s
     0     0 -1838.5474    0   37 -1212.1040 -1838.5474  51.7%     -    0s
     0     0 -1835.3535    0   62 -1212.1040 -1835.3535  51.4%     -    0s
     0     0 -1835.3316    0   68 -1212.1040 -1835.3316  51.4%     -    0s
     0     0 -1800.7717    0   31 -1212.1040 -1800.7717  48.6%     -    0s
     0     0 -1799.4772    0   66 -1212.1040 -1799.4772  48.5%     -    0s
     0     0 -1799.4711    0   68 -1212.1040 -1799.4711  48.5%     -    0s
     0     0 -1794.9586    0   82 -1212.1040 -1794.9586  48.1%     -    0s
H    0     0                    -1728.690107 -1794.9586  3.83%     -    0s
     0     0 -1790.5564    0   80 -1728.6901 -1790.5564  3.58%     -    0s
     0     0 -1790.5564    0   80 -1728.6901 -1790.5564  3.58%     -    0s
     0     0 -1777.6010    0   77 -1728.6901 -1777.6010  2.83%     -    0s
     0     0 -1777.6010    0    2 -1728.6901 -1777.6010  2.83%     -    0s

Explored 1 nodes (753 simplex iterations) in 0.08 seconds
Thread count was 4 (of 4 available processors)

Solution count 2: -1728.69 -1212.1 

Optimal solution found (tolerance 1.00e-04)
Best objective -1.728690107326e+03, best bound -1.728690107326e+03, gap 0.0000%

Gurobi 7.5.2 (linux64) logging started Thu Mar 21 01:08:12 2019

Changed value of parameter LogFile to /home/aniket/python_scripts/Plasmids/exp/2019-03-21__iterative_with_questionable/output/sample_125/1.5.1/nplasmids_1/MILP/m.log
   Prev: gurobi.log  Default: 
Changed value of parameter TimeLimit to 2400.0
   Prev: 1e+100  Min: 0.0  Max: 1e+100  Default: 1e+100
Optimize a model with 2487 rows, 722 columns and 8880 nonzeros
Variable types: 193 continuous, 529 integer (273 binary)
Coefficient statistics:
  Matrix range     [5e-02, 1e+06]
  Objective range  [6e-04, 2e+05]
  Bounds range     [1e+00, 1e+00]
  RHS range        [5e-02, 1e+06]
Presolve removed 2073 rows and 461 columns
Presolve time: 0.01s
Presolved: 414 rows, 261 columns, 1304 nonzeros
Variable types: 56 continuous, 205 integer (205 binary)

Root relaxation: objective -1.244145e+03, 256 iterations, 0.00 seconds

    Nodes    |    Current Node    |     Objective Bounds      |     Work
 Expl Unexpl |  Obj  Depth IntInf | Incumbent    BestBd   Gap | It/Node Time

     0     0 -1244.1451    0   16          - -1244.1451      -     -    0s
     0     0 -1220.3721    0    8          - -1220.3721      -     -    0s
     0     0 -1216.9787    0    6          - -1216.9787      -     -    0s
     0     0 -1192.4200    0    2          - -1192.4200      -     -    0s
     0     0 -1188.6906    0    2          - -1188.6906      -     -    0s
     0     0 -1179.8874    0    6          - -1179.8874      -     -    0s
     0     0 -1174.8527    0    2          - -1174.8527      -     -    0s
*    0     0               0    -1168.680354 -1168.6804  0.00%     -    0s

Cutting planes:
  Gomory: 5
  Cover: 23
  Clique: 12
  Flow cover: 2

Explored 1 nodes (322 simplex iterations) in 0.03 seconds
Thread count was 4 (of 4 available processors)

Solution count 1: -1168.68 

Optimal solution found (tolerance 1.00e-04)
Best objective -1.168680354060e+03, best bound -1.168680354060e+03, gap 0.0000%
